
N = 14;
C = 11;

dots = 
[| b,y,g,0,0,0,0,0,0,0,0,0,0,0,
 | 0,0,0,0,0,0,0,0,0,0,0,0,0,0,
 | 0,0,0,0,p,0,0,0,0,o,0,0,r,0,
 | 0,0,0,0,0,0,0,0,0,0,0,0,o,v,
 | 0,s,0,0,0,0,0,0,0,v,0,0,0,0,
 | 0,0,0,0,0,0,0,0,0,0,0,0,w,r,
 | 0,0,0,0,0,0,0,0,0,0,0,0,0,0,
 | 0,0,0,0,0,0,0,0,0,0,t,0,0,0,
 | 0,0,0,0,0,0,0,g,0,c,b,0,0,0,
 | 0,0,0,0,0,0,0,0,0,0,w,0,0,0,
 | 0,0,0,0,0,0,p,0,0,0,y,0,0,0,
 | 0,0,0,0,0,0,0,0,0,0,0,0,0,0,
 | c,t,s,0,0,0,0,0,0,0,0,0,0,0,
 | 0,0,0,0,0,0,0,0,0,0,0,0,0,0,
 |];
